23101 16765 1 2 4 5 7 9 15 17 18 20 21 23 24 25 26 27 28 29 30 31 34 35 36 37 38 39 40 41 42 43 44 46 47 49 51 52 53 54 55 58 59 60 62 63 64 65 67 69 70 71 73 74 75 76 77 80 81 82 84 86 87 88 89 90 92 93 94 95 96 97 98 100 101 102 103 105 106 107 109 110 113 114 115 116 117 118 120 121 122 124 125 126 127 128 129 130 131 132 133 134 136 137 138 139 140 142 143 144 147 148 149 152 153 154 155 156 157 158 159 160 161 164 165 166 168 170 171 172 173 174 176 177 179 180 181 182 183 184 185 186 187 188 189 190 191 193 194 195 196 199 202 207 208 209 210 212 213 214 215 217 218 219 220 221 224 225 227 228 229 230 231 232 233 234 235 236 237 238 240 241 242 243 245 246 247 249 250 253 254 255 256 257 258 259 262 264 266 267 268 270 271 272 273 275 276 278 280 281 282 283 285 287 288 289 291 292 293 296 297 300 301 304 305 306 308 309 310 311 312 313 314 315 317 318 319 320 321 322 323 324 325 327 328 329 333 334 335 336 338 341 342 343 344 345 346 347 348 349 350 351 352 353 354 355 356 357 358 359 360 361 362 363 364 365 366 367 368 370 373 374 376 377 378 379 381 382 383 385 388 389 391 392 393 394 395 396 398 399 400 401 402 403 404 405 406 408 409 410 411 413 414 415 418 420 423 424 425 426 427 428 431 432 433 434 435 436 437 438 439 441 442 444 445 447 449 450 451 452 453 454 455 456 457 458 459 460 462 463 464 465 470 471 472 473 474 475 476 477 478 479 480 482 483 485 486 487 488 489 490 491 492 494 495 496 497 498 499 500 